[Molden Format]
made by pyscf v[2.10.0]
[Atoms] (AU)
H   1   1     0.00000000000000     0.00000000000000     0.00000000000000
H   2   1     0.00000000000000     0.00000000000000     2.26767134947807
[GTO]
1 0
 s    3 1.00
            3.42525091    0.15432897070298
            0.62391373    0.53532814243847
             0.1688554    0.44463454202535

2 0
 s    3 1.00
            3.42525091    0.15432897070298
            0.62391373    0.53532814243847
             0.1688554    0.44463454202535

[5d]
[7f]
[9g]

[MO]
 Sym= A
 Ene=   -0.4265026421
 Spin= Alpha
 Occup=    2.00000
   1      0.60040137415966
   2      0.60040137415966
 Sym= A
 Ene=    0.3441268814
 Spin= Alpha
 Occup=    0.00000
   1      0.90316332013211
   2     -0.90316332013211
