[Molden Format]
made by pyscf v[2.10.0]
[Atoms] (AU)
H   1   1     0.00000000000000     0.00000000000000     0.00000000000000
H   2   1     0.00000000000000     0.00000000000000     4.15739747404314
[GTO]
1 0
 s    3 1.00
            3.42525091    0.15432897070298
            0.62391373    0.53532814243847
             0.1688554    0.44463454202535

2 0
 s    3 1.00
            3.42525091    0.15432897070298
            0.62391373    0.53532814243847
             0.1688554    0.44463454202535

[5d]
[7f]
[9g]

[MO]
 Sym= A
 Ene=   -0.2443269925
 Spin= Alpha
 Occup=    2.00000
   1       0.6788188654042
   2       0.6788188654042
 Sym= A
 Ene=   0.08073270909
 Spin= Alpha
 Occup=    0.00000
   1      0.73925403146516
   2     -0.73925403146516
