[Molden Format]
made by pyscf v[2.10.0]
[Atoms] (AU)
H   1   1     0.00000000000000     0.00000000000000     0.00000000000000
H   2   1     0.00000000000000     0.00000000000000     7.55890449826025
[GTO]
1 0
 s    3 1.00
            3.42525091    0.15432897070298
            0.62391373    0.53532814243847
             0.1688554    0.44463454202535

2 0
 s    3 1.00
            3.42525091    0.15432897070298
            0.62391373    0.53532814243847
             0.1688554    0.44463454202535

[5d]
[7f]
[9g]

[MO]
 Sym= A
 Ene=   -0.1471788791
 Spin= Alpha
 Occup=    2.00000
   1      0.70648177152565
   2      0.70648177152564
 Sym= A
 Ene=  -0.01201963285
 Spin= Alpha
 Occup=    0.00000
   1     -0.70773345258683
   2      0.70773345258685
