[Molden Format]
made by pyscf v[2.10.0]
[Atoms] (AU)
H   1   1     0.00000000000000     0.00000000000000     0.00000000000000
H   2   1     0.00000000000000     0.00000000000000     4.72431531141265
[GTO]
1 0
 s    3 1.00
            3.42525091    0.15432897070298
            0.62391373    0.53532814243847
             0.1688554    0.44463454202535

2 0
 s    3 1.00
            3.42525091    0.15432897070298
            0.62391373    0.53532814243847
             0.1688554    0.44463454202535

[5d]
[7f]
[9g]

[MO]
 Sym= A
 Ene=   -0.2144671927
 Spin= Alpha
 Occup=    2.00000
   1      0.69022383537643
   2      0.69022383537643
 Sym= A
 Ene=   0.04995242383
 Spin= Alpha
 Occup=    0.00000
   1      0.72529246968437
   2     -0.72529246968437
