[Molden Format]
made by pyscf v[2.10.0]
[Atoms] (AU)
H   1   1     0.00000000000000     0.00000000000000     0.00000000000000
H   2   1     0.00000000000000     0.00000000000000     1.88972612456506
[GTO]
1 0
 s    3 1.00
            3.42525091    0.15432897070298
            0.62391373    0.53532814243847
             0.1688554    0.44463454202535

2 0
 s    3 1.00
            3.42525091    0.15432897070298
            0.62391373    0.53532814243847
             0.1688554    0.44463454202535

[5d]
[7f]
[9g]

[MO]
 Sym= A
 Ene=   -0.4844416804
 Spin= Alpha
 Occup=    2.00000
   1      0.57802798201983
   2      0.57802798201984
 Sym= A
 Ene=     0.457501939
 Spin= Alpha
 Occup=    0.00000
   1     -0.99650311977662
   2      0.99650311977662
