[Molden Format]
made by pyscf v[2.10.0]
[Atoms] (AU)
H   1   1     0.00000000000000     0.00000000000000     0.00000000000000
H   2   1     0.00000000000000     0.00000000000000     8.12582233562977
[GTO]
1 0
 s    3 1.00
            3.42525091    0.15432897070298
            0.62391373    0.53532814243847
             0.1688554    0.44463454202535

2 0
 s    3 1.00
            3.42525091    0.15432897070298
            0.62391373    0.53532814243847
             0.1688554    0.44463454202535

[5d]
[7f]
[9g]

[MO]
 Sym= A
 Ene=   -0.1416880507
 Spin= Alpha
 Occup=    2.00000
   1      0.70682224599113
   2      0.70682224599047
 Sym= A
 Ene=  -0.01718751594
 Spin= Alpha
 Occup=    0.00000
   1      -0.7073916602825
   2      0.70739166028315
